\* Problem: Assemblage (PLNE)*\



Maximize
MargeTotale: 700 C + 300 S 

Subject To
MaximumDeTravail  : 6 C + 5 S <= 6000
LimiteDeBatteries : C <= 700
LimiteDuParking   : 2.5 C + S <= 1500

Integer 
C 
S  



End


